\ This file was automatically generated by Zimpl
\ var x1 >= 0;
\ var x2 >= 0;
\ minimize Z:     3*x1 + 2*x2;
\ subto r1:     2*x1 + 2*x2 <= 8;
\ subto r2:     1*x1 + 5*x2 >= 10;
\ subto r3:     -1*x1 + 3*x2 == 6;
\Problem name: pp
Minimize
 Z:  +3 x1 +2 x2
Subject to
 r1_1:
  +2 x2 +2 x1 <= 8
 r2_1:
  +5 x2 + x1 >= 10
 r3_1:
  +3 x2 - x1 = 6
Bounds
 0 <= x1 <= +inf
 0 <= x2 <= +inf
End
